;; Mutation-Based Equivalence Benchmark
;; Source:     AutomatArk / instance12446.smt2
;; Mutations:  bound_lower_inc, opt_to_required, union_to_inter
;; Status:     sat
;;
;; Original regex vs mutated regex
;; Equivalence check: unsat ⟺ L(R1) = L(R2)

(set-info :smt-lib-version 2.6)
(set-info :category "mutation")
(set-info :status sat)
(set-logic QF_S)


;; R1: original
;; R2: mutated (bound_lower_inc, opt_to_required, union_to_inter)
(assert
  (not
    (=
      (re.++ (re.* (re.++ (re.+ (re.union (re.range "a" "z") (re.range "0" "9"))) (re.opt (re.++ (re.* (re.union (str.to_re "-") (re.range "a" "z") (re.range "0" "9"))) (re.+ (re.union (re.range "a" "z") (re.range "0" "9"))))) (str.to_re "."))) ((_ re.loop 1 63) (re.++ (re.+ (re.union (re.range "a" "z") (re.range "0" "9"))) (re.opt (re.++ (re.* (re.union (str.to_re "-") (re.range "a" "z") (re.range "0" "9"))) (re.+ (re.union (re.range "a" "z") (re.range "0" "9"))))))) (re.+ (re.++ (str.to_re ".") ((_ re.loop 2 7) (re.union (re.range "a" "z") (re.range "0" "9"))))) (str.to_re "\u{a}"))
      (re.++ (re.* (re.++ (re.+ (re.inter (re.range "a" "z") (re.range "0" "9"))) (re.opt (re.++ (re.* (re.union (str.to_re "-") (re.range "a" "z") (re.range "0" "9"))) (re.+ (re.union (re.range "a" "z") (re.range "0" "9"))))) (str.to_re "."))) ((_ re.loop 1 63) (re.++ (re.+ (re.union (re.range "a" "z") (re.range "0" "9"))) re.++ (re.* (re.union (str.to_re "-") (re.range "a" "z") (re.range "0" "9"))) (re.+ (re.union (re.range "a" "z") (re.range "0" "9")))))))))

(check-sat)
(exit)
